Sb  S  I Li Sb  S  I Li 
 1.0000000000000000
     3.9769199999999998    0.0000000000000000    0.0000000000000000
    -1.9884599999999990    3.4441137488184097    0.0000000000000000
     0.0000000000000000    0.0000000000000000   15.5114999999999998
 Sb  S   I   Li  Sb  S   I   Li 
   1   1   1   1   1   1   1   1
Cartesian
  0.0000000000000000  0.0000000000000000  2.3050089000000002
  1.9972489932000010  2.0473878591225918  4.3745532300000001
  1.9917409590000010  1.8161156208894353  0.0000000000000000
  0.0077351094000010  3.1799157831465492  4.7558258999999996
  0.0000000000000000  0.0000000000000000 10.0607588999999997
  1.9972489932000010  2.0473878591225918 12.1303032300000009
  1.9917409590000010  1.8161156208894353  7.7557499999999999
  0.0077351094000010  3.1799157831465492 12.5115759000000004

